db/inputs/1569349331638530352851327001441115307.smt2
(set-logic QF_FP)
(declare-const x0 (_ FloatingPoint 11 53))
(declare-const x1 (_ FloatingPoint 11 53))
(declare-const x2 (_ FloatingPoint 11 53))
(declare-const x3 (_ FloatingPoint 11 53))
(declare-const x4 (_ FloatingPoint 11 53))
(declare-const x5 (_ FloatingPoint 11 53))
(declare-const x6 (_ FloatingPoint 11 53))
(declare-const x7 (_ FloatingPoint 11 53))
(declare-const x8 (_ FloatingPoint 11 53))
(declare-const x9 (_ FloatingPoint 11 53))
(declare-const x10 (_ FloatingPoint 11 53))
(declare-const x11 (_ FloatingPoint 11 53))
(declare-const x12 (_ FloatingPoint 11 53))
(declare-const x13 (_ FloatingPoint 11 53))
(declare-const x14 (_ FloatingPoint 11 53))
(declare-const x15 (_ FloatingPoint 11 53))
(declare-const x16 (_ FloatingPoint 11 53))
(declare-const x17 (_ FloatingPoint 11 53))
(declare-const x18 (_ FloatingPoint 11 53))
(declare-const x19 (_ FloatingPoint 11 53))
(declare-const x20 (_ FloatingPoint 11 53))
(declare-const x21 (_ FloatingPoint 11 53))
(declare-const x22 (_ FloatingPoint 11 53))
(declare-const x23 (_ FloatingPoint 11 53))
(assert (fp.lt (fp.neg (fp.mul RNE (fp.mul RNE x8 x10) (fp.add RNE x5 x14))) (fp.sub RNE (fp.mul RNE (fp.add RNE x14 x4) (fp.add RNE x0 x20)) (fp.sub RNE (fp.add RNE x21 x12) (fp.div RNE x19 x11)))))
(assert (fp.gt (fp.mul RNE (fp.neg (fp.sub RNE x19 x0)) (fp.neg (fp.mul RNE x5 x6))) (fp.mul RNE (fp.mul RNE (fp.div RNE x22 x11) (fp.add RNE x13 x10)) (fp.div RNE (fp.neg x12) (fp.neg x6)))))
(assert (fp.leq (fp.sub RNE (fp.sub RNE (fp.add RNE x20 x9) (fp.mul RNE x6 x22)) (fp.neg (fp.sub RNE x18 x17))) (fp.div RNE (fp.sub RNE (fp.mul RNE x21 x17) (fp.add RNE x8 x15)) (fp.mul RNE (fp.add RNE x1 x13) (fp.sub RNE x23 x20)))))
(assert (fp.geq (fp.sub RNE (fp.sub RNE (fp.mul RNE x1 x10) (fp.neg x7)) (fp.add RNE (fp.add RNE x21 x16) (fp.div RNE x3 x9))) (fp.sub RNE (fp.div RNE (fp.mul RNE x5 x5) (fp.mul RNE x14 x12)) (fp.div RNE (fp.mul RNE x2 x4) (fp.add RNE x5 x19)))))
(check-sat)
