db/data/1569349331638530352851327001441115307.z3.out
-------------------
2500.145727061
